DIMENSION: 10
NODE_COORD_SECTION
1 249.5162708883 287.2403560831
2 10602.7027027027 136.3236587511
3 1286.1313868613 9.7294185377
4 469.5817490494 75.2169720347
5 -2535.7664233577 -1056.6539923954
6 362.8601921025 9.6834264432
7 6.7097817300 -17.3287276914
8 236.7988032909 44.0860215054
9 -292.9443690638 -43.0096051227
10 260.5101143360 -182.8955406231
EOF